N = 30;
M = 66;
Edge_Start = [1, 1, 2, 3, 3, 4, 5, 5, 6, 7, 9, 9, 10, 11, 12, 13, 13, 14, 15, 16, 16, 18, 18, 19, 20, 21, 22, 22, 24, 25, 26, 27, 28, 2, 8, 3, 4, 10, 5, 6, 12, 7, 14, 10, 17, 11, 12, 13, 14, 21, 15, 23, 17, 24, 19, 26, 20, 28, 22, 23, 30, 25, 26, 27, 28, 29];
Edge_End = [2, 8, 3, 4, 10, 5, 6, 12, 7, 14, 10, 17, 11, 12, 13, 14, 21, 15, 23, 17, 24, 19, 26, 20, 28, 22, 23, 30, 25, 26, 27, 28, 29, 1, 1, 2, 3, 3, 4, 5, 5, 6, 7, 9, 9, 10, 11, 12, 13, 13, 14, 15, 16, 16, 18, 18, 19, 20, 21, 22, 22, 24, 25, 26, 27, 28];
L = [12, 4, 12, 2, 18, 17, 1, 17, 7, 3, 1, 4, 14, 2, 4, 9, 15, 14, 6, 6, 7, 13, 13, 4, 5, 5, 7, 10, 6, 5, 18, 13, 12, 12, 4, 12, 2, 18, 17, 1, 17, 7, 3, 1, 4, 14, 2, 4, 9, 15, 14, 6, 6, 7, 13, 13, 4, 5, 5, 7, 10, 6, 5, 18, 13, 12];
T = [12, 3, 15, 6, 12, 17, 4, 18, 4, 2, 1, 2, 15, 3, 3, 20, 10, 26, 7, 10, 5, 6, 16, 4, 8, 1, 2, 14, 8, 12, 22, 11, 6, 12, 3, 15, 6, 12, 17, 4, 18, 4, 2, 1, 2, 15, 3, 3, 20, 10, 26, 7, 10, 5, 6, 16, 4, 8, 1, 2, 14, 8, 12, 22, 11, 6];
Lower_Bound = [0, 13, 27, 33, 50, 55, 58, 3, 40, 43, 54, 57, 63, 60, 80, 54, 42, 93, 99, 105, 70, 71, 73, 57, 67, 77, 101, 111, 116, 87];
Upper_Bound = [7, 18, 33, 37, 55, 72, 63, 4, 47, 47, 66, 60, 71, 72, 82, 56, 43, 94, 104, 107, 72, 72, 78, 63, 73, 79, 107, 116, 121, 94];
Start = 1;
End = 30;
Time = 94;
